language Essence 1.3

letting can_fly be
        relation((1, 1), (1, 2), (1, 3), (1, 6), (1, 7), (1, 8), (1, 10), (1, 13), (1, 15), (1, 17), (1, 18), (1, 20),
                 (1, 23), (1, 26), (1, 27), (2, 2), (2, 3), (2, 7), (2, 8), (2, 10), (2, 11), (2, 13), (2, 14), (2, 17),
                 (2, 19), (2, 20), (2, 21), (2, 22), (2, 23), (2, 26), (3, 4), (3, 5), (3, 8), (3, 10), (3, 11),
                 (3, 12), (3, 13), (3, 16), (3, 17), (3, 18), (3, 21), (3, 22), (3, 24), (3, 25), (3, 26), (4, 1),
                 (4, 2), (4, 4), (4, 6), (4, 7), (4, 10), (4, 14), (4, 15), (4, 16), (4, 17), (4, 18), (4, 21), (4, 22),
                 (4, 23), (4, 24), (4, 25), (5, 2), (5, 3), (5, 4), (5, 6), (5, 10), (5, 14), (5, 16), (5, 18), (5, 19),
                 (5, 21), (5, 23), (5, 24), (5, 25), (6, 1), (6, 2), (6, 3), (6, 6), (6, 7), (6, 8), (6, 11), (6, 13),
                 (6, 14), (6, 15), (6, 19), (6, 22), (6, 27), (7, 1), (7, 3), (7, 4), (7, 6), (7, 7), (7, 8), (7, 9),
                 (7, 16), (7, 20), (7, 23), (7, 24), (7, 25), (7, 28), (8, 3), (8, 4), (8, 5), (8, 6), (8, 7), (8, 8),
                 (8, 9), (8, 10), (8, 13), (8, 17), (8, 18), (8, 22), (8, 23), (8, 24), (8, 27), (8, 28), (9, 1),
                 (9, 4), (9, 5), (9, 7), (9, 10), (9, 12), (9, 13), (9, 14), (9, 17), (9, 18), (9, 19), (9, 20),
                 (9, 21), (9, 23), (9, 26), (9, 27), (10, 1), (10, 2), (10, 3), (10, 5), (10, 6), (10, 7), (10, 8),
                 (10, 9), (10, 10), (10, 11), (10, 12), (10, 13), (10, 14), (10, 16), (10, 18), (10, 20), (10, 21),
                 (10, 24), (11, 1), (11, 2), (11, 6), (11, 9), (11, 10), (11, 11), (11, 14), (11, 16), (11, 18),
                 (11, 19), (11, 20), (11, 23), (11, 25), (11, 26), (11, 27), (11, 28), (12, 1), (12, 2), (12, 5),
                 (12, 6), (12, 7), (12, 11), (12, 13), (12, 15), (12, 17), (12, 19), (12, 20), (12, 21), (12, 22),
                 (12, 24), (12, 26), (13, 1), (13, 4), (13, 7), (13, 8), (13, 9), (13, 10), (13, 11), (13, 14),
                 (13, 15), (13, 17), (13, 18), (13, 22), (13, 24), (13, 28))
$ Visualisation for can_fly
$  1  1
$  1  2
$  1  3
$  1  6
$  1  7
$  1  8
$  1 10
$  1 13
$  1 15
$  1 17
$  1 18
$  1 20
$  1 23
$  1 26
$  1 27
$  2  2
$  2  3
$  2  7
$  2  8
$  2 10
$  2 11
$  2 13
$  2 14
$  2 17
$  2 19
$  2 20
$  2 21
$  2 22
$  2 23
$  2 26
$  3  4
$  3  5
$  3  8
$  3 10
$  3 11
$  3 12
$  3 13
$  3 16
$  3 17
$  3 18
$  3 21
$  3 22
$  3 24
$  3 25
$  3 26
$  4  1
$  4  2
$  4  4
$  4  6
$  4  7
$  4 10
$  4 14
$  4 15
$  4 16
$  4 17
$  4 18
$  4 21
$  4 22
$  4 23
$  4 24
$  4 25
$  5  2
$  5  3
$  5  4
$  5  6
$  5 10
$  5 14
$  5 16
$  5 18
$  5 19
$  5 21
$  5 23
$  5 24
$  5 25
$  6  1
$  6  2
$  6  3
$  6  6
$  6  7
$  6  8
$  6 11
$  6 13
$  6 14
$  6 15
$  6 19
$  6 22
$  6 27
$  7  1
$  7  3
$  7  4
$  7  6
$  7  7
$  7  8
$  7  9
$  7 16
$  7 20
$  7 23
$  7 24
$  7 25
$  7 28
$  8  3
$  8  4
$  8  5
$  8  6
$  8  7
$  8  8
$  8  9
$  8 10
$  8 13
$  8 17
$  8 18
$  8 22
$  8 23
$  8 24
$  8 27
$  8 28
$  9  1
$  9  4
$  9  5
$  9  7
$  9 10
$  9 12
$  9 13
$  9 14
$  9 17
$  9 18
$  9 19
$  9 20
$  9 21
$  9 23
$  9 26
$  9 27
$ 10  1
$ 10  2
$ 10  3
$ 10  5
$ 10  6
$ 10  7
$ 10  8
$ 10  9
$ 10 10
$ 10 11
$ 10 12
$ 10 13
$ 10 14
$ 10 16
$ 10 18
$ 10 20
$ 10 21
$ 10 24
$ 11  1
$ 11  2
$ 11  6
$ 11  9
$ 11 10
$ 11 11
$ 11 14
$ 11 16
$ 11 18
$ 11 19
$ 11 20
$ 11 23
$ 11 25
$ 11 26
$ 11 27
$ 11 28
$ 12  1
$ 12  2
$ 12  5
$ 12  6
$ 12  7
$ 12 11
$ 12 13
$ 12 15
$ 12 17
$ 12 19
$ 12 20
$ 12 21
$ 12 22
$ 12 24
$ 12 26
$ 13  1
$ 13  4
$ 13  7
$ 13  8
$ 13  9
$ 13 10
$ 13 11
$ 13 14
$ 13 15
$ 13 17
$ 13 18
$ 13 22
$ 13 24
$ 13 28

letting carry_in be
        function(1 --> 14, 2 --> 9, 3 --> 24, 4 --> 4, 5 --> 8, 6 --> 1, 7 --> 13, 8 --> 22, 9 --> 7, 10 --> 25,
                 11 --> 3, 12 --> 15, 13 --> 23)
letting maint be {2, 3, 4, 11, 13, 14, 15, 19, 20, 21, 22, 24}
letting maint_freq be 5
letting n_flights be 28
letting n_planes be 13
letting network be
        relation((1, 4), (1, 5), (1, 6), (1, 8), (1, 10), (1, 11), (1, 13), (1, 15), (1, 16), (1, 17), (1, 19), (1, 21),
                 (1, 23), (1, 25), (1, 28), (2, 2), (2, 3), (2, 4), (2, 7), (2, 8), (2, 12), (2, 13), (2, 14), (2, 17),
                 (2, 20), (2, 25), (2, 27), (3, 1), (3, 2), (3, 3), (3, 4), (3, 5), (3, 9), (3, 15), (3, 17), (3, 19),
                 (3, 22), (3, 27), (3, 28), (4, 1), (4, 3), (4, 4), (4, 8), (4, 11), (4, 15), (4, 16), (4, 18), (4, 19),
                 (4, 20), (4, 22), (4, 23), (4, 25), (4, 26), (4, 28), (5, 1), (5, 2), (5, 3), (5, 4), (5, 5), (5, 6),
                 (5, 9), (5, 12), (5, 14), (5, 15), (5, 18), (5, 19), (5, 20), (5, 22), (5, 23), (5, 24), (5, 26),
                 (5, 27), (6, 2), (6, 3), (6, 4), (6, 5), (6, 7), (6, 8), (6, 10), (6, 11), (6, 13), (6, 14), (6, 16),
                 (6, 17), (6, 19), (6, 21), (6, 22), (6, 24), (7, 1), (7, 2), (7, 3), (7, 4), (7, 11), (7, 13), (7, 16),
                 (7, 19), (7, 22), (7, 23), (7, 26), (7, 28), (8, 1), (8, 4), (8, 5), (8, 8), (8, 12), (8, 15), (8, 16),
                 (8, 17), (8, 19), (8, 20), (8, 23), (8, 26), (8, 27), (8, 28), (9, 1), (9, 2), (9, 6), (9, 7), (9, 8),
                 (9, 9), (9, 15), (9, 16), (9, 19), (9, 21), (9, 23), (9, 25), (9, 28), (10, 3), (10, 4), (10, 5),
                 (10, 6), (10, 9), (10, 10), (10, 11), (10, 12), (10, 15), (10, 16), (10, 17), (10, 19), (10, 23),
                 (10, 24), (10, 26), (11, 1), (11, 7), (11, 8), (11, 10), (11, 12), (11, 15), (11, 16), (11, 17),
                 (11, 18), (11, 21), (11, 27), (12, 1), (12, 2), (12, 6), (12, 8), (12, 11), (12, 12), (12, 13),
                 (12, 16), (12, 17), (12, 18), (12, 21), (12, 27), (13, 4), (13, 5), (13, 6), (13, 7), (13, 8),
                 (13, 10), (13, 11), (13, 12), (13, 13), (13, 15), (13, 18), (13, 20), (13, 25), (13, 26), (13, 28),
                 (14, 1), (14, 4), (14, 5), (14, 6), (14, 7), (14, 8), (14, 12), (14, 20), (14, 21), (14, 23), (14, 28),
                 (15, 1), (15, 3), (15, 4), (15, 6), (15, 7), (15, 8), (15, 9), (15, 15), (15, 16), (15, 19), (15, 20),
                 (15, 21), (15, 23), (15, 25), (15, 28), (16, 1), (16, 4), (16, 7), (16, 8), (16, 9), (16, 12),
                 (16, 15), (16, 17), (16, 20), (16, 22), (16, 23), (16, 28), (17, 1), (17, 2), (17, 3), (17, 8),
                 (17, 9), (17, 12), (17, 15), (17, 18), (17, 19), (17, 20), (17, 21), (17, 22), (17, 23), (17, 24),
                 (17, 25), (17, 26), (17, 27), (17, 28), (18, 1), (18, 4), (18, 6), (18, 7), (18, 9), (18, 10),
                 (18, 11), (18, 13), (18, 14), (18, 15), (18, 16), (18, 17), (18, 22), (18, 23), (18, 25), (18, 26),
                 (19, 3), (19, 9), (19, 10), (19, 11), (19, 13), (19, 14), (19, 15), (19, 16), (19, 18), (19, 19),
                 (19, 23), (19, 24), (19, 25), (19, 26), (19, 27), (20, 1), (20, 2), (20, 7), (20, 8), (20, 11),
                 (20, 12), (20, 16), (20, 17), (20, 20), (20, 21), (20, 22), (20, 24), (20, 27), (21, 2), (21, 3),
                 (21, 5), (21, 8), (21, 9), (21, 12), (21, 13), (21, 15), (21, 17), (21, 19), (21, 20), (21, 21),
                 (21, 23), (21, 24), (21, 25), (21, 27), (22, 4), (22, 6), (22, 8), (22, 10), (22, 11), (22, 13),
                 (22, 14), (22, 17), (22, 19), (22, 21), (22, 24), (22, 25), (22, 26), (22, 28), (23, 1), (23, 6),
                 (23, 8), (23, 12), (23, 14), (23, 17), (23, 18), (23, 19), (23, 20), (23, 24), (23, 26), (23, 28),
                 (24, 1), (24, 3), (24, 8), (24, 10), (24, 11), (24, 14), (24, 19), (24, 20), (24, 21), (24, 23),
                 (24, 25), (24, 27), (25, 1), (25, 2), (25, 3), (25, 5), (25, 7), (25, 9), (25, 12), (25, 14), (25, 15),
                 (25, 16), (25, 18), (25, 19), (25, 20), (25, 22), (25, 23), (25, 27), (25, 28), (26, 2), (26, 3),
                 (26, 4), (26, 7), (26, 13), (26, 15), (26, 16), (26, 17), (26, 18), (26, 19), (26, 20), (26, 21),
                 (26, 24), (26, 25), (26, 28), (27, 1), (27, 6), (27, 7), (27, 8), (27, 9), (27, 15), (27, 16),
                 (27, 21), (27, 22), (27, 25), (28, 1), (28, 2), (28, 3), (28, 4), (28, 5), (28, 6), (28, 8), (28, 13),
                 (28, 14), (28, 15), (28, 18), (28, 21), (28, 26), (28, 28))
$ Visualisation for network
$  1  4
$  1  5
$  1  6
$  1  8
$  1 10
$  1 11
$  1 13
$  1 15
$  1 16
$  1 17
$  1 19
$  1 21
$  1 23
$  1 25
$  1 28
$  2  2
$  2  3
$  2  4
$  2  7
$  2  8
$  2 12
$  2 13
$  2 14
$  2 17
$  2 20
$  2 25
$  2 27
$  3  1
$  3  2
$  3  3
$  3  4
$  3  5
$  3  9
$  3 15
$  3 17
$  3 19
$  3 22
$  3 27
$  3 28
$  4  1
$  4  3
$  4  4
$  4  8
$  4 11
$  4 15
$  4 16
$  4 18
$  4 19
$  4 20
$  4 22
$  4 23
$  4 25
$  4 26
$  4 28
$  5  1
$  5  2
$  5  3
$  5  4
$  5  5
$  5  6
$  5  9
$  5 12
$  5 14
$  5 15
$  5 18
$  5 19
$  5 20
$  5 22
$  5 23
$  5 24
$  5 26
$  5 27
$  6  2
$  6  3
$  6  4
$  6  5
$  6  7
$  6  8
$  6 10
$  6 11
$  6 13
$  6 14
$  6 16
$  6 17
$  6 19
$  6 21
$  6 22
$  6 24
$  7  1
$  7  2
$  7  3
$  7  4
$  7 11
$  7 13
$  7 16
$  7 19
$  7 22
$  7 23
$  7 26
$  7 28
$  8  1
$  8  4
$  8  5
$  8  8
$  8 12
$  8 15
$  8 16
$  8 17
$  8 19
$  8 20
$  8 23
$  8 26
$  8 27
$  8 28
$  9  1
$  9  2
$  9  6
$  9  7
$  9  8
$  9  9
$  9 15
$  9 16
$  9 19
$  9 21
$  9 23
$  9 25
$  9 28
$ 10  3
$ 10  4
$ 10  5
$ 10  6
$ 10  9
$ 10 10
$ 10 11
$ 10 12
$ 10 15
$ 10 16
$ 10 17
$ 10 19
$ 10 23
$ 10 24
$ 10 26
$ 11  1
$ 11  7
$ 11  8
$ 11 10
$ 11 12
$ 11 15
$ 11 16
$ 11 17
$ 11 18
$ 11 21
$ 11 27
$ 12  1
$ 12  2
$ 12  6
$ 12  8
$ 12 11
$ 12 12
$ 12 13
$ 12 16
$ 12 17
$ 12 18
$ 12 21
$ 12 27
$ 13  4
$ 13  5
$ 13  6
$ 13  7
$ 13  8
$ 13 10
$ 13 11
$ 13 12
$ 13 13
$ 13 15
$ 13 18
$ 13 20
$ 13 25
$ 13 26
$ 13 28
$ 14  1
$ 14  4
$ 14  5
$ 14  6
$ 14  7
$ 14  8
$ 14 12
$ 14 20
$ 14 21
$ 14 23
$ 14 28
$ 15  1
$ 15  3
$ 15  4
$ 15  6
$ 15  7
$ 15  8
$ 15  9
$ 15 15
$ 15 16
$ 15 19
$ 15 20
$ 15 21
$ 15 23
$ 15 25
$ 15 28
$ 16  1
$ 16  4
$ 16  7
$ 16  8
$ 16  9
$ 16 12
$ 16 15
$ 16 17
$ 16 20
$ 16 22
$ 16 23
$ 16 28
$ 17  1
$ 17  2
$ 17  3
$ 17  8
$ 17  9
$ 17 12
$ 17 15
$ 17 18
$ 17 19
$ 17 20
$ 17 21
$ 17 22
$ 17 23
$ 17 24
$ 17 25
$ 17 26
$ 17 27
$ 17 28
$ 18  1
$ 18  4
$ 18  6
$ 18  7
$ 18  9
$ 18 10
$ 18 11
$ 18 13
$ 18 14
$ 18 15
$ 18 16
$ 18 17
$ 18 22
$ 18 23
$ 18 25
$ 18 26
$ 19  3
$ 19  9
$ 19 10
$ 19 11
$ 19 13
$ 19 14
$ 19 15
$ 19 16
$ 19 18
$ 19 19
$ 19 23
$ 19 24
$ 19 25
$ 19 26
$ 19 27
$ 20  1
$ 20  2
$ 20  7
$ 20  8
$ 20 11
$ 20 12
$ 20 16
$ 20 17
$ 20 20
$ 20 21
$ 20 22
$ 20 24
$ 20 27
$ 21  2
$ 21  3
$ 21  5
$ 21  8
$ 21  9
$ 21 12
$ 21 13
$ 21 15
$ 21 17
$ 21 19
$ 21 20
$ 21 21
$ 21 23
$ 21 24
$ 21 25
$ 21 27
$ 22  4
$ 22  6
$ 22  8
$ 22 10
$ 22 11
$ 22 13
$ 22 14
$ 22 17
$ 22 19
$ 22 21
$ 22 24
$ 22 25
$ 22 26
$ 22 28
$ 23  1
$ 23  6
$ 23  8
$ 23 12
$ 23 14
$ 23 17
$ 23 18
$ 23 19
$ 23 20
$ 23 24
$ 23 26
$ 23 28
$ 24  1
$ 24  3
$ 24  8
$ 24 10
$ 24 11
$ 24 14
$ 24 19
$ 24 20
$ 24 21
$ 24 23
$ 24 25
$ 24 27
$ 25  1
$ 25  2
$ 25  3
$ 25  5
$ 25  7
$ 25  9
$ 25 12
$ 25 14
$ 25 15
$ 25 16
$ 25 18
$ 25 19
$ 25 20
$ 25 22
$ 25 23
$ 25 27
$ 25 28
$ 26  2
$ 26  3
$ 26  4
$ 26  7
$ 26 13
$ 26 15
$ 26 16
$ 26 17
$ 26 18
$ 26 19
$ 26 20
$ 26 21
$ 26 24
$ 26 25
$ 26 28
$ 27  1
$ 27  6
$ 27  7
$ 27  8
$ 27  9
$ 27 15
$ 27 16
$ 27 21
$ 27 22
$ 27 25
$ 28  1
$ 28  2
$ 28  3
$ 28  4
$ 28  5
$ 28  6
$ 28  8
$ 28 13
$ 28 14
$ 28 15
$ 28 18
$ 28 21
$ 28 26
$ 28 28

